
Gurobi 9.5.1 (linux64) logging started Thu Mar 31 16:06:26 2022

Set parameter LogFile to value "../results/logs/log_2022_03_31_16_06.csv_2_250.log"
Gurobi Optimizer version 9.5.1 build v9.5.1rc2 (linux64)
Thread count: 8 physical cores, 8 logical processors, using up to 8 threads
Optimize a model with 116457 rows, 116456 columns and 1089224 nonzeros
Model fingerprint: 0x2c993ccd
Coefficient statistics:
  Matrix range     [1e+00, 2e+00]
  Objective range  [1e+00, 1e+00]
  Bounds range     [1e+00, 1e+00]
  RHS range        [1e+00, 2e+02]

Concurrent LP optimizer: primal simplex, dual simplex, and barrier
Showing barrier log only...

Presolve time: 0.46s
Presolved: 116457 rows, 116456 columns, 1089224 nonzeros

Ordering time: 0.70s

Barrier performed 0 iterations in 2.45 seconds (2.32 work units)
Barrier solve interrupted - model solved by another algorithm


Solved with dual simplex
Solved in 20248 iterations and 2.48 seconds (2.81 work units)
Optimal objective  4.662000000e+04

Gurobi 9.5.1 (linux64) logging started Thu Mar 31 16:28:32 2022

Set parameter LogFile to value "../results/logs/log_2022_03_31_16_06.csv_2_250.log"
Gurobi Optimizer version 9.5.1 build v9.5.1rc2 (linux64)
Thread count: 8 physical cores, 8 logical processors, using up to 8 threads
Optimize a model with 116457 rows, 116456 columns and 1089224 nonzeros
Model fingerprint: 0x726a877d
Variable types: 0 continuous, 116456 integer (116456 binary)
Coefficient statistics:
  Matrix range     [1e+00, 2e+00]
  Objective range  [1e+00, 1e+00]
  Bounds range     [1e+00, 1e+00]
  RHS range        [1e+00, 2e+02]
Found heuristic solution: objective -0.0000000
Presolve removed 43163 rows and 31542 columns
Presolve time: 4.37s
Presolved: 73294 rows, 84914 columns, 941685 nonzeros
Variable types: 0 continuous, 84914 integer (81076 binary)
Found heuristic solution: objective 33827.000000

Deterministic concurrent LP optimizer: primal and dual simplex
Showing first log only...


Root simplex log...

Iteration    Objective       Primal Inf.    Dual Inf.      Time
       0    1.0600000e+02   0.000000e+00   3.696500e+04      6s
Concurrent spin time: 0.50s

Solved with dual simplex

Root relaxation: objective 3.609950e+04, 4418 iterations, 1.16 seconds (0.52 work units)

    Nodes    |    Current Node    |     Objective Bounds      |     Work
 Expl Unexpl |  Obj  Depth IntInf | Incumbent    BestBd   Gap | It/Node Time

     0     0 36099.5000    0 1720 33827.0000 36099.5000  6.72%     -    6s
H    0     0                    35071.000000 36099.5000  2.93%     -    6s
H    0     0                    35265.000000 36099.5000  2.37%     -    6s
     0     0 35281.0000    0  122 35265.0000 35281.0000  0.05%     -    7s
H    0     0                    35266.000000 35281.0000  0.04%     -    8s
     0     0 35281.0000    0  107 35266.0000 35281.0000  0.04%     -    8s
     0     0 35281.0000    0   64 35266.0000 35281.0000  0.04%     -   10s
     0     0 35281.0000    0   62 35266.0000 35281.0000  0.04%     -   10s
     0     0 35281.0000    0   42 35266.0000 35281.0000  0.04%     -   11s
     0     0 35281.0000    0   42 35266.0000 35281.0000  0.04%     -   11s
     0     0 35281.0000    0   36 35266.0000 35281.0000  0.04%     -   12s
     0     0 35281.0000    0   46 35266.0000 35281.0000  0.04%     -   12s
     0     0 35278.8750    0   59 35266.0000 35278.8750  0.04%     -   13s
H    0     0                    35267.000000 35278.8750  0.03%     -   13s
     0     0 35276.6250    0   44 35267.0000 35276.6250  0.03%     -   13s
     0     0 35276.6250    0   44 35267.0000 35276.6250  0.03%     -   14s
     0     0 35272.5000    0   20 35267.0000 35272.5000  0.02%     -   14s
     0     0 35272.5000    0   21 35267.0000 35272.5000  0.02%     -   14s
     0     0     cutoff    0      35267.0000 35267.0000  0.00%     -   15s

Cutting planes:
  Gomory: 69
  Cover: 69
  Implied bound: 1
  MIR: 316
  GUB cover: 1788
  Zero half: 33
  Mod-K: 28

Explored 1 nodes (11009 simplex iterations) in 15.15 seconds (15.48 work units)
Thread count was 8 (of 8 available processors)

Solution count 6: 35267 35266 35265 ... -0

Optimal solution found (tolerance 0.00e+00)
Best objective 3.526700000000e+04, best bound 3.526700000000e+04, gap 0.0000%
